!BIOSYM archive 2
PBC=ON
     Energy         0        0.00         0.000000
!DATE  [H][C@]12CS[C@@H](CCCCC(=O)O)[C@@]1([H])NC(=O)N2
PBC   13.2711   20.6779   15.3433   90.0000   90.0000   90.0000
O       0.028110854     5.603765011     2.488318682 CORE    1  O  O   0.0000    1
C      -0.993421078     4.174809456     1.031186342 CORE    2  C  C   0.0000    2
C      -0.001776935     3.658942938     1.407952905 CORE    3  C  C   0.0000    3
C       0.363454968     2.636785269     1.416002393 CORE    4  C  C   0.0000    4
C       0.920271158     1.209356427     1.894149899 CORE    5  C  C   0.0000    5
C       1.018425703    -0.236069739     1.347871304 CORE    6  C  C   0.0000    6
C       0.451976061    -0.671409309     0.166998059 CORE    7  C  C   0.0000    7
C       0.873610973    -1.762593985    -0.788302898 CORE    8  C  C   0.0000    8
N       0.746778309    -2.992527246    -0.397867918 CORE    9  N  N   0.0000    9
C      -0.203959271    -3.710527420    -0.769729376 CORE   10  C  C   0.0000   10
O      -0.318499148    -4.792923450     0.015557845 CORE   11  O  O   0.0000   11
H       1.695507646    -1.242444754    -1.447675824 CORE   12  H  H   0.0000   12
C      -0.208652377    -1.891437411    -1.730197072 CORE   13  C  C   0.0000   13
N      -0.659300566    -3.139817476    -1.638998151 CORE   14  N  N   0.0000   14
H      -0.268950015    -1.568032622    -2.854974985 CORE   15  H  H   0.0000   15
C      -1.261362791    -0.870813906    -1.073079467 CORE   16  C  C   0.0000   16
S      -0.606662750    -0.289998770    -0.189210102 CORE   17  S  S   0.0000   17
O      -1.575550675     5.884937286     1.121998310 CORE   18  O  O   0.0000   18
end
end
     Energy         1        0.00         0.000000
!DATE  [H][C@]12CS[C@@H](CCCCC(=O)O)[C@@]1([H])NC(=O)N2conf2
PBC   18.2829   15.3785   17.1087   90.0000   90.0000   90.0000
O       4.691834450    -2.486262321    -2.690708399 CORE    1  O  O   0.0000    1
C       3.360793829    -1.760375381    -2.939984083 CORE    2  C  C   0.0000    2
C       2.445218325    -2.250929117    -1.909308434 CORE    3  C  C   0.0000    3
C       2.019544125    -1.318934321    -1.147203803 CORE    4  C  C   0.0000    4
C       1.767260671    -0.766638339     0.467772216 CORE    5  C  C   0.0000    5
C       0.831293166    -0.492572010     1.144061446 CORE    6  C  C   0.0000    6
C      -0.008321697     0.348956019     0.886573732 CORE    7  C  C   0.0000    7
C      -1.101230502     0.803866684     1.868347526 CORE    8  C  C   0.0000    8
N      -2.301128387     0.076394558     1.802936554 CORE    9  N  N   0.0000    9
C      -3.036632061     0.426395863     0.486769289 CORE   10  C  C   0.0000   10
O      -3.591095686    -0.549506664    -0.008442029 CORE   11  O  O   0.0000   11
H      -0.742597997     0.898132861     2.741180420 CORE   12  H  H   0.0000   12
C      -1.629674673     1.939328790     1.272061110 CORE   13  C  C   0.0000   13
N      -3.001748800     1.637084007     0.962033689 CORE   14  N  N   0.0000   14
H      -1.750515819     2.892242432     1.667296886 CORE   15  H  H   0.0000   15
C      -0.748976111     2.029295444    -0.026954591 CORE   16  C  C   0.0000   16
S      -0.639271557     0.736218214    -0.208905920 CORE   17  S  S   0.0000   17
O       3.435247183    -2.162696600    -4.367526054 CORE   18  O  O   0.0000   18
end
end
     Energy         2        0.00         0.000000
!DATE  [H][C@]12CS[C@@H](CCCCC(=O)O)[C@@]1([H])NC(=O)N2conf3
PBC   17.5078   18.9565   14.7519   90.0000   90.0000   90.0000
O       3.726634979    -4.881350040    -1.347968459 CORE    1  O  O   0.0000    1
C       3.130412102    -3.499769688    -1.755490780 CORE    2  C  C   0.0000    2
C       2.905014038    -2.768812656    -0.679205358 CORE    3  C  C   0.0000    3
C       1.984823942    -1.995687008    -0.164108768 CORE    4  C  C   0.0000    4
C       1.973551869    -0.383902997    -0.827002704 CORE    5  C  C   0.0000    5
C       1.030536294     0.760320961    -0.397775799 CORE    6  C  C   0.0000    6
C      -0.165400311     0.589578152     0.001362213 CORE    7  C  C   0.0000    7
C      -1.398156881     1.433852792    -0.112213731 CORE    8  C  C   0.0000    8
N      -1.318909883     2.614619732     0.467744797 CORE    9  N  N   0.0000    9
C      -2.058846712     3.097377300     1.243267417 CORE   10  C  C   0.0000   10
O      -1.653724432     4.075166702     1.910751581 CORE   11  O  O   0.0000   11
H      -1.847798228     1.140553474    -1.102550745 CORE   12  H  H   0.0000   12
C      -2.356374264     1.026497364     0.865850449 CORE   13  C  C   0.0000   13
N      -2.634536028     1.993203282     1.712486625 CORE   14  N  N   0.0000   14
H      -3.399578810     0.582902014     0.613362134 CORE   15  H  H   0.0000   15
C      -1.542063594    -0.093708828     1.519138813 CORE   16  C  C   0.0000   16
S      -0.483802855    -0.219715729     0.893490374 CORE   17  S  S   0.0000   17
O       4.108218193    -3.471126556    -2.841138124 CORE   18  O  O   0.0000   18
end
end
     Energy         3        0.00         0.000000
!DATE  [H][C@]12CS[C@@H](CCCCC(=O)O)[C@@]1([H])NC(=O)N2conf4
PBC   17.2931   18.8525   14.6791   90.0000   90.0000   90.0000
O      -4.032355309     3.839746952    -2.519961834 CORE    1  O  O   0.0000    1
C      -3.195896387     3.674552202    -1.378004074 CORE    2  C  C   0.0000    2
C      -1.941305280     3.247380972    -1.064431787 CORE    3  C  C   0.0000    3
C      -1.543107629     2.391148567    -0.461730957 CORE    4  C  C   0.0000    4
C      -1.894723296     0.968106627     0.406881034 CORE    5  C  C   0.0000    5
C      -0.812105894    -0.016541909     1.001303434 CORE    6  C  C   0.0000    6
C       0.118222639    -0.630808413     0.364493459 CORE    7  C  C   0.0000    7
C       0.946425021    -1.764339805     0.058495171 CORE    8  C  C   0.0000    8
N       0.992601156    -2.652821541     0.821982086 CORE    9  N  N   0.0000    9
C       1.955234051    -3.239311934     1.080307484 CORE   10  C  C   0.0000   10
O       1.752924204    -3.988864183     2.159116507 CORE   11  O  O   0.0000   11
H       0.775238454    -1.914265513    -1.172923684 CORE   12  H  H   0.0000   12
C       2.312484264    -1.405177236     0.231926486 CORE   13  C  C   0.0000   13
N       2.760770082    -2.299352884     0.994925916 CORE   14  N  N   0.0000   14
H       3.119391203    -1.302120328    -0.557609916 CORE   15  H  H   0.0000   15
C       2.032840252    -0.015746839     0.597682536 CORE   16  C  C   0.0000   16
S       0.827065945     0.244801968     0.207282111 CORE   17  S  S   0.0000   17
O      -4.173702717     4.863613129    -0.769733787 CORE   18  O  O   0.0000   18
end
end
     Energy         4        0.00         0.000000
!DATE  [H][C@]12CS[C@@H](CCCCC(=O)O)[C@@]1([H])NC(=O)N2conf5
PBC   19.1756   16.2652   16.0676   90.0000   90.0000   90.0000
O       3.750169039     3.537972927    -2.747635365 CORE    1  O  O   0.0000    1
C       4.284202576     2.457778454    -2.349688053 CORE    2  C  C   0.0000    2
C       3.619643450     1.460693359    -1.488784671 CORE    3  C  C   0.0000    3
C       2.679374933     0.520227790    -0.962445259 CORE    4  C  C   0.0000    4
C       1.452771425     1.384047389    -0.443468541 CORE    5  C  C   0.0000    5
C       0.427154332     0.637372077    -0.046865165 CORE    6  C  C   0.0000    6
C      -0.467047960    -0.277821869     0.358138084 CORE    7  C  C   0.0000    7
C      -1.848642945    -0.587028027     0.375527203 CORE    8  C  C   0.0000    8
N      -2.418788910    -0.180272996     1.427186012 CORE    9  N  N   0.0000    9
C      -3.221065521    -0.547925711     2.092179298 CORE   10  C  C   0.0000   10
O      -3.640314341    -0.228222191     3.313004255 CORE   11  O  O   0.0000   11
H      -2.232054234    -0.399223179    -0.740643144 CORE   12  H  H   0.0000   12
C      -2.022100687    -1.873101592     0.711029887 CORE   13  C  C   0.0000   13
N      -2.812676668    -1.933585405     1.828253150 CORE   14  N  N   0.0000   14
H      -2.601949215    -2.727225780     0.036307506 CORE   15  H  H   0.0000   15
C      -0.619233549    -2.248733759     0.824625313 CORE   16  C  C   0.0000   16
S       0.135296047    -1.276003838     0.567920625 CORE   17  S  S   0.0000   17
O       5.535262585     2.281053066    -2.754641056 CORE   18  O  O   0.0000   18
end
end
     Energy         5        0.00         0.000000
!DATE  [H][C@]12CS[C@@H](CCCCC(=O)O)[C@@]1([H])NC(=O)N2conf6
PBC   20.6645   12.9228   15.4454   90.0000   90.0000   90.0000
O       5.422975540     0.516636491     3.053704500 CORE    1  O  O   0.0000    1
C       5.062468529    -0.239833638     2.092656136 CORE    2  C  C   0.0000    2
C       3.816215754     0.049261682     1.430813432 CORE    3  C  C   0.0000    3
C       2.696316719    -0.082802810     0.714015603 CORE    4  C  C   0.0000    4
C       1.265829325    -0.453242183     1.530579329 CORE    5  C  C   0.0000    5
C       0.030793212    -0.497022837     0.884709775 CORE    6  C  C   0.0000    6
C      -0.726080894    -0.112143867    -0.088151664 CORE    7  C  C   0.0000    7
C      -1.939945459     0.500485659    -0.354112625 CORE    8  C  C   0.0000    8
N      -2.884520769    -0.302130193    -0.216596097 CORE    9  N  N   0.0000    9
C      -3.830281019    -0.433691114    -0.621445179 CORE   10  C  C   0.0000   10
O      -4.630659103    -1.291913748    -0.515243351 CORE   11  O  O   0.0000   11
H      -1.857850909     1.630901575     0.005986348 CORE   12  H  H   0.0000   12
C      -2.130016088     0.520270050    -1.725667238 CORE   13  C  C   0.0000   13
N      -3.198835850    -0.179083109    -1.993553877 CORE   14  N  N   0.0000   14
H      -2.259562254     1.439470410    -2.391658068 CORE   15  H  H   0.0000   15
C      -0.821976483    -0.099293828    -2.136925220 CORE   16  C  C   0.0000   16
S      -0.048688326    -0.062301226    -1.187487721 CORE   17  S  S   0.0000   17
O       6.033819199    -0.903567374     1.518377185 CORE   18  O  O   0.0000   18
end
end
     Energy         6        0.00         0.000000
!DATE  [H][C@]12CS[C@@H](CCCCC(=O)O)[C@@]1([H])NC(=O)N2conf7
PBC   19.0902   12.7605   18.1175   90.0000   90.0000   90.0000
O      -5.247725010     1.097375393    -3.270067453 CORE    1  O  O   0.0000    1
C      -4.634735107    -0.056128416    -3.211718082 CORE    2  C  C   0.0000    2
C      -3.550661564    -0.263031334    -2.326386452 CORE    3  C  C   0.0000    3
C      -2.281942368    -0.272438079    -1.709279418 CORE    4  C  C   0.0000    4
C      -1.154046059    -0.715092182    -1.334519386 CORE    5  C  C   0.0000    5
C      -0.326733351    -0.563975930    -0.466471910 CORE    6  C  C   0.0000    6
C       0.686589241    -0.151403233     0.219241202 CORE    7  C  C   0.0000    7
C       1.826199532     0.585007370     0.726228774 CORE    8  C  C   0.0000    8
N       1.721642137     1.196224928     1.939878583 CORE    9  N  N   0.0000    9
C       2.020458460     0.639946759     3.005421638 CORE   10  C  C   0.0000   10
O       1.516647220     0.868405759     4.159732819 CORE   11  O  O   0.0000   11
H       2.070857525     1.325447917    -0.116992816 CORE   12  H  H   0.0000   12
C       2.734839439    -0.209910810     1.157500982 CORE   13  C  C   0.0000   13
N       3.071608067     0.033968713     2.516313314 CORE   14  N  N   0.0000   14
H       3.842485905    -0.283634782     0.660714746 CORE   15  H  H   0.0000   15
C       2.046366453    -1.435065746     0.857043207 CORE   16  C  C   0.0000   16
S       0.827826500    -0.860206842     1.151142716 CORE   17  S  S   0.0000   17
O      -5.169679165    -0.935489416    -3.957782507 CORE   18  O  O   0.0000   18
end
end
     Energy         7        0.00         0.000000
!DATE  [H][C@]12CS[C@@H](CCCCC(=O)O)[C@@]1([H])NC(=O)N2conf8
PBC   15.7067   19.6643   14.6966   90.0000   90.0000   90.0000
O      -2.116485596     5.439909458     2.144236565 CORE    1  O  O   0.0000    1
C      -2.199574709     4.524365902     0.964604139 CORE    2  C  C   0.0000    2
C      -1.322460413     3.750666380     0.781489849 CORE    3  C  C   0.0000    3
C      -0.671815157     2.680901527     0.406400234 CORE    4  C  C   0.0000    4
C      -0.802918732     1.221914053     1.386699080 CORE    5  C  C   0.0000    5
C      -0.213485211     0.091882184     1.210533857 CORE    6  C  C   0.0000    6
C       0.125474617    -0.542617261     0.167478189 CORE    7  C  C   0.0000    7
C       0.182182431    -2.007315159    -0.307518691 CORE    8  C  C   0.0000    8
N       0.964302361    -2.749532461     0.369773448 CORE    9  N  N   0.0000    9
C       1.712991834    -3.480380297     0.035523552 CORE   10  C  C   0.0000   10
O       2.751763582    -4.140237331     0.843429744 CORE   11  O  O   0.0000   11
H      -0.958073974    -2.194366217    -0.625155210 CORE   12  H  H   0.0000   12
C       0.992763162    -2.125317335    -1.436011910 CORE   13  C  C   0.0000   13
N       1.949261546    -2.931209087    -1.251541376 CORE   14  N  N   0.0000   14
H       0.563869357    -2.426520109    -2.552319765 CORE   15  H  H   0.0000   15
C       1.350150347    -0.668926358    -1.530788064 CORE   16  C  C   0.0000   16
S       0.647027552     0.032732107    -0.784736753 CORE   17  S  S   0.0000   17
O      -2.954972744     5.524047375     0.177903339 CORE   18  O  O   0.0000   18
end
end
     Energy         8        0.00         0.000000
!DATE  [H][C@]12CS[C@@H](CCCCC(=O)O)[C@@]1([H])NC(=O)N2conf9
PBC   14.3741   14.1696   20.8326   90.0000   90.0000   90.0000
O       1.075860262     0.678366363     6.012340069 CORE    1  O  O   0.0000    1
C       0.249950841     1.072939992     4.330924034 CORE    2  C  C   0.0000    2
C       1.242279172    -0.007213472     3.802066088 CORE    3  C  C   0.0000    3
C       1.308839798    -0.297592252     2.789045095 CORE    4  C  C   0.0000    4
C       1.929156899     0.171912462     1.231328249 CORE    5  C  C   0.0000    5
C       1.570821166    -0.323846996    -0.102427907 CORE    6  C  C   0.0000    6
C       0.161806583     0.102534421    -0.618442655 CORE    7  C  C   0.0000    7
C      -0.775368750     0.261997312    -1.716641068 CORE    8  C  C   0.0000    8
N      -0.253333300     0.494614691    -2.816433430 CORE    9  N  N   0.0000    9
C      -0.446914494     0.045659229    -3.783202410 CORE   10  C  C   0.0000   10
O       0.388569027     0.084423274    -4.820232391 CORE   11  O  O   0.0000   11
H      -1.643981814     0.942079127    -1.229407191 CORE   12  H  H   0.0000   12
C      -1.334078908    -0.950092375    -2.113263130 CORE   13  C  C   0.0000   13
N      -1.159549236    -0.977975190    -3.388747215 CORE   14  N  N   0.0000   14
H      -2.444952726    -1.272560358    -1.970688939 CORE   15  H  H   0.0000   15
C      -0.553307772    -1.762836933    -1.120625019 CORE   16  C  C   0.0000   16
S      -0.390646547    -0.669163167    -0.050507385 CORE   17  S  S   0.0000   17
O       1.074849725     2.406754017     5.564914227 CORE   18  O  O   0.0000   18
end
end
     Energy         9        0.00         0.000000
!DATE  [H][C@]12CS[C@@H](CCCCC(=O)O)[C@@]1([H])NC(=O)N2conf10
PBC   15.6717   16.2328   18.8125   90.0000   90.0000   90.0000
O      -3.226647139     2.715538979     4.451663971 CORE    1  O  O   0.0000    1
C      -1.288648009     1.733280063     3.659997702 CORE    2  C  C   0.0000    2
C      -2.210896730     2.168975592     2.466044426 CORE    3  C  C   0.0000    3
C      -2.261125088     1.777019024     1.378815889 CORE    4  C  C   0.0000    4
C      -2.374642134     0.374849141     0.501709282 CORE    5  C  C   0.0000    5
C      -1.598017931    -0.222552925    -0.573185861 CORE    6  C  C   0.0000    6
C       0.191322744    -0.049710732    -0.650806189 CORE    7  C  C   0.0000    7
C       1.366031289    -0.310368985    -1.350010037 CORE    8  C  C   0.0000    8
N       2.209204435    -1.287450075    -0.945222974 CORE    9  N  N   0.0000    9
C       2.166068554    -2.328961372    -1.327476263 CORE   10  C  C   0.0000   10
O       2.445070505    -3.517308235    -1.062467933 CORE   11  O  O   0.0000   11
H       1.690263987     0.781935275    -1.114244342 CORE   12  H  H   0.0000   12
C       1.133357763    -0.781050920    -2.516524792 CORE   13  C  C   0.0000   13
N       1.927210331    -1.874642253    -2.579816818 CORE   14  N  N   0.0000   14
H       1.510536313    -0.082097940    -3.432367086 CORE   15  H  H   0.0000   15
C      -0.196943358    -0.846812963    -2.178310394 CORE   16  C  C   0.0000   16
S      -0.008998997    -0.812334061    -0.107940219 CORE   17  S  S   0.0000   17
O      -1.473145127     2.561692715     5.380142212 CORE   18  O  O   0.0000   18
end
end
